projected/problems_b25_r0_d7_m100_s666/_DIMACS/b25_d7_r0_s666_018.cnf
p cnf 351 684 25
c p show 1 2 3 4 5 6 7 8 9 10 11 12 13 14 15 16 17 18 19 20 21 22 23 24 25
-235 -18 -8 0
-236 -5 4 0
-237 236 235 0
-238 -4 0
-238 -16 0
-239 16 0
-239 4 0
-240 239 238 0
-241 11 0
-241 -14 0
-242 241 0
-242 240 0
-243 242 0
-243 237 0
-244 -23 0
-244 -13 0
-245 11 0
-245 8 0
-246 245 244 0
-247 1 0
-247 -2 0
-248 22 -23 0
-249 248 247 0
-250 249 246 0
-251 250 243 0
-252 20 14 0
-253 -14 -20 0
-254 253 0
-254 252 0
-255 -7 0
-255 -12 0
-256 255 254 0
-257 22 0
-257 17 0
-258 -17 0
-258 -22 0
-259 258 257 0
-260 -12 0
-260 4 0
-261 260 259 0
-262 12 -4 0
-263 -22 -17 0
-264 17 22 0
-265 264 0
-265 263 0
-266 265 262 0
-267 266 0
-267 261 0
-268 267 0
-268 256 0
-269 24 -2 0
-270 11 0
-270 -19 0
-271 270 0
-271 269 0
-272 -13 0
-272 2 0
-273 14 24 0
-274 273 0
-274 272 0
-275 274 0
-275 271 0
-276 275 268 0
-277 276 0
-277 251 0
-278 -20 0
-278 -14 0
-279 14 0
-279 20 0
-280 279 278 0
-281 7 12 0
-282 281 0
-282 280 0
-283 262 0
-283 265 0
-284 259 0
-284 260 0
-285 284 283 0
-286 285 282 0
-287 -24 0
-287 2 0
-288 -11 19 0
-289 288 287 0
-290 13 -2 0
-291 -14 0
-291 -24 0
-292 291 290 0
-293 292 289 0
-294 293 0
-294 286 0
-295 18 0
-295 8 0
-296 5 0
-296 -4 0
-297 296 0
-297 295 0
-298 4 16 0
-299 -16 -4 0
-300 299 0
-300 298 0
-301 -11 14 0
-302 301 300 0
-303 302 297 0
-304 23 13 0
-305 -11 -8 0
-306 305 0
-306 304 0
-307 -1 2 0
-308 -22 0
-308 23 0
-309 308 0
-309 307 0
-310 309 0
-310 306 0
-311 310 0
-311 303 0
-312 311 0
-312 294 0
-313 312 277 0
-314 11 0
-314 15 0
-315 22 -10 0
-316 10 -22 0
-317 316 0
-317 315 0
-318 317 0
-318 314 0
-319 -5 -19 0
-320 19 0
-320 -3 0
-321 320 319 0
-322 321 318 0
-323 -12 0
-323 -23 0
-324 -5 -8 0
-325 324 323 0
-326 5 0
-326 8 0
-327 12 23 0
-328 327 326 0
-329 328 0
-329 325 0
-330 5 -9 0
-331 -1 0
-331 23 0
-332 331 330 0
-333 332 329 0
-334 333 0
-334 322 0
-335 -15 11 0
-336 19 0
-336 -13 0
-337 336 0
-337 335 0
-338 21 22 0
-339 8 1 0
-340 339 338 0
-341 340 337 0
-342 16 0
-342 19 0
-343 -19 0
-343 -16 0
-344 343 342 0
-345 25 0
-345 -24 0
-346 345 344 0
-347 9 20 0
-348 -4 0
-348 24 0
-349 348 347 0
-350 349 0
-350 346 0
-351 350 0
-351 341 0
-26 351 0
-26 334 0
-27 26 313 0
-28 18 -13 0
-228 -9 10 0
-229 228 28 0
-230 -24 0
-230 14 0
-231 -3 22 0
-232 231 0
-232 230 0
-233 232 0
-233 229 0
-234 -18 0
-234 -22 0
-29 -8 3 0
-30 29 234 0
-31 5 -5 0
-32 20 0
-32 18 0
-33 32 0
-33 31 0
-34 33 0
-34 30 0
-35 34 0
-35 233 0
-36 10 0
-36 -14 0
-37 1 2 0
-38 37 0
-38 36 0
-39 -1 0
-39 -2 0
-40 -10 14 0
-41 40 0
-41 39 0
-42 41 38 0
-43 16 -2 0
-44 16 0
-44 -2 0
-45 2 0
-45 -16 0
-46 45 44 0
-47 46 0
-47 43 0
-48 47 42 0
-49 -16 0
-49 13 0
-50 17 0
-50 20 0
-51 50 0
-51 49 0
-52 -21 0
-52 5 0
-53 -5 0
-53 21 0
-54 53 52 0
-55 10 0
-55 6 0
-56 55 0
-56 54 0
-57 56 0
-57 51 0
-58 57 0
-58 48 0
-59 58 0
-59 35 0
-60 -5 -16 0
-61 -12 0
-61 -13 0
-62 61 60 0
-63 12 13 0
-64 5 0
-64 16 0
-65 64 63 0
-66 65 0
-66 62 0
-67 -2 0
-67 17 0
-68 -20 -5 0
-69 68 67 0
-70 20 0
-70 5 0
-71 2 -17 0
-72 71 70 0
-73 72 0
-73 69 0
-74 73 0
-74 66 0
-75 -13 -4 0
-76 -2 0
-76 -17 0
-77 76 0
-77 75 0
-78 -16 -25 0
-79 25 16 0
-80 79 0
-80 78 0
-81 23 0
-81 -8 0
-82 81 80 0
-83 82 0
-83 77 0
-84 83 0
-84 74 0
-85 21 -15 0
-86 -24 0
-86 -25 0
-87 86 0
-87 85 0
-88 -7 0
-88 11 0
-89 -9 0
-89 25 0
-90 89 0
-90 88 0
-91 90 87 0
-92 7 -11 0
-93 9 -25 0
-94 93 92 0
-95 -21 0
-95 15 0
-96 24 25 0
-97 96 95 0
-98 97 94 0
-99 98 0
-99 91 0
-100 24 0
-100 22 0
-101 19 0
-101 16 0
-102 101 0
-102 100 0
-103 -19 -16 0
-104 -24 -22 0
-105 104 0
-105 103 0
-106 105 102 0
-107 9 0
-107 5 0
-108 -22 0
-108 17 0
-109 108 0
-109 107 0
-110 22 -17 0
-111 -9 -5 0
-112 111 0
-112 110 0
-113 112 109 0
-114 113 0
-114 106 0
-115 114 0
-115 99 0
-116 115 0
-116 84 0
-117 116 59 0
-118 63 0
-118 64 0
-119 60 0
-119 61 0
-120 119 118 0
-121 70 0
-121 71 0
-122 67 0
-122 68 0
-123 122 121 0
-124 123 120 0
-125 13 0
-125 4 0
-126 2 17 0
-127 126 125 0
-128 16 0
-128 25 0
-129 -25 0
-129 -16 0
-130 129 128 0
-131 -23 8 0
-132 131 0
-132 130 0
-133 132 127 0
-134 133 124 0
-135 94 0
-135 97 0
-136 87 0
-136 90 0
-137 136 135 0
-138 103 104 0
-139 100 101 0
-140 139 0
-140 138 0
-141 110 111 0
-142 107 108 0
-143 142 0
-143 141 0
-144 143 140 0
-145 144 137 0
-146 145 134 0
-147 -18 0
-147 13 0
-148 9 0
-148 -10 0
-149 148 0
-149 147 0
-150 24 -14 0
-151 3 0
-151 -22 0
-152 151 150 0
-153 152 149 0
-154 18 22 0
-155 8 0
-155 -3 0
-156 155 0
-156 154 0
-157 -5 0
-157 5 0
-158 -20 -18 0
-159 158 157 0
-160 159 156 0
-161 160 153 0
-162 39 40 0
-163 36 37 0
-164 163 0
-164 162 0
-165 -16 0
-165 2 0
-166 -16 2 0
-167 -2 16 0
-168 167 0
-168 166 0
-169 168 165 0
-170 169 0
-170 164 0
-171 16 -13 0
-172 -17 -20 0
-173 172 171 0
-174 21 -5 0
-175 5 -21 0
-176 175 0
-176 174 0
-177 -10 -6 0
-178 177 176 0
-179 178 173 0
-180 179 170 0
-181 180 161 0
-182 181 146 0
-183 182 0
-183 117 0
-184 183 27 0
-185 146 0
-185 181 0
-186 59 0
-186 116 0
-187 186 185 0
-188 294 311 0
-189 251 276 0
-190 189 0
-190 188 0
-191 -11 -15 0
-192 -22 0
-192 10 0
-193 -10 0
-193 22 0
-194 193 192 0
-195 194 191 0
-196 5 0
-196 19 0
-197 -19 3 0
-198 197 0
-198 196 0
-199 198 0
-199 195 0
-200 326 0
-200 327 0
-201 323 0
-201 324 0
-202 201 200 0
-203 -5 0
-203 9 0
-204 1 -23 0
-205 204 0
-205 203 0
-206 205 0
-206 202 0
-207 206 199 0
-208 15 0
-208 -11 0
-209 -19 13 0
-210 209 208 0
-211 -21 0
-211 -22 0
-212 -8 0
-212 -1 0
-213 212 0
-213 211 0
-214 213 0
-214 210 0
-215 -16 -19 0
-216 19 16 0
-217 216 0
-217 215 0
-218 -25 24 0
-219 218 0
-219 217 0
-220 -9 0
-220 -20 0
-221 4 -24 0
-222 221 0
-222 220 0
-223 222 219 0
-224 223 214 0
-225 224 207 0
-226 225 0
-226 190 0
-227 226 187 0
227 0
184 0
-61 -63 0
-63 -61 0
-60 -64 0
-66 -120 0
-68 -70 0
-70 -68 0
-71 -67 0
-67 -71 0
-73 -123 0
-74 -124 0
-125 -75 0
-75 -125 0
-126 -76 0
-76 -126 0
-77 -127 0
-127 -77 0
-80 -130 0
-130 -80 0
-81 -131 0
-131 -81 0
-132 -82 0
-133 -83 0
-83 -133 0
-84 -134 0
-92 -88 0
-93 -89 0
-94 -90 0
-85 -95 0
-95 -85 0
-96 -86 0
-97 -87 0
-87 -97 0
-99 -137 0
-137 -99 0
-101 -103 0
-104 -100 0
-140 -106 0
-106 -140 0
-110 -108 0
-108 -110 0
-107 -111 0
-111 -107 0
-143 -113 0
-113 -143 0
-114 -144 0
-144 -114 0
-145 -115 0
-115 -145 0
-116 -146 0
-146 -116 0
-28 -147 0
-148 -228 0
-228 -148 0
-229 -149 0
-230 -150 0
-231 -151 0
-232 -152 0
-233 -153 0
-234 -154 0
-155 -29 0
-29 -155 0
-30 -156 0
-156 -30 0
-31 -157 0
-158 -32 0
-32 -158 0
-33 -159 0
-159 -33 0
-160 -34 0
-34 -160 0
-35 -161 0
-37 -39 0
-40 -36 0
-164 -42 0
-42 -164 0
-165 -43 0
-168 -46 0
-169 -47 0
-47 -169 0
-48 -170 0
-171 -49 0
-50 -172 0
-172 -50 0
-173 -51 0
-176 -54 0
-55 -177 0
-177 -55 0
-178 -56 0
-179 -57 0
-57 -179 0
-58 -180 0
-59 -181 0
-183 -187 0
-187 -183 0
-254 -280 0
-280 -254 0
-255 -281 0
-281 -255 0
-282 -256 0
-256 -282 0
-262 -260 0
-265 -259 0
-259 -265 0
-267 -285 0
-268 -286 0
-287 -269 0
-270 -288 0
-288 -270 0
-289 -271 0
-272 -290 0
-290 -272 0
-273 -291 0
-291 -273 0
-292 -274 0
-293 -275 0
-275 -293 0
-276 -294 0
-295 -235 0
-235 -295 0
-236 -296 0
-237 -297 0
-297 -237 0
-300 -240 0
-240 -300 0
-301 -241 0
-241 -301 0
-242 -302 0
-302 -242 0
-303 -243 0
-243 -303 0
-244 -304 0
-305 -245 0
-245 -305 0
-246 -306 0
-306 -246 0
-307 -247 0
-308 -248 0
-309 -249 0
-310 -250 0
-250 -310 0
-251 -311 0
-311 -251 0
-190 -313 0
-314 -191 0
-317 -194 0
-318 -195 0
-195 -318 0
-319 -196 0
-196 -319 0
-320 -197 0
-197 -320 0
-198 -321 0
-199 -322 0
-322 -199 0
-324 -326 0
-326 -324 0
-323 -327 0
-329 -202 0
-202 -329 0
-203 -330 0
-330 -203 0
-204 -331 0
-331 -204 0
-332 -205 0
-205 -332 0
-206 -333 0
-333 -206 0
-334 -207 0
-207 -334 0
-208 -335 0
-209 -336 0
-210 -337 0
-338 -211 0
-212 -339 0
-339 -212 0
-340 -213 0
-213 -340 0
-214 -341 0
-341 -214 0
-217 -344 0
-344 -217 0
-345 -218 0
-346 -219 0
-347 -220 0
-220 -347 0
-221 -348 0
-222 -349 0
-349 -222 0
-350 -223 0
-351 -224 0
-224 -351 0
-225 -26 0
-226 -27 0
-27 -226 0
