projected/problems_b25_r0_d7_m100_s666/b25_d7_r0_s666_018.smt2
(set-logic QF_UF)
(declare-fun A0 () Bool)
(declare-fun A1 () Bool)
(declare-fun A2 () Bool)
(declare-fun A3 () Bool)
(declare-fun A4 () Bool)
(declare-fun A5 () Bool)
(declare-fun A6 () Bool)
(declare-fun A7 () Bool)
(declare-fun A8 () Bool)
(declare-fun A9 () Bool)
(declare-fun A10 () Bool)
(declare-fun A11 () Bool)
(declare-fun A12 () Bool)
(declare-fun A13 () Bool)
(declare-fun A14 () Bool)
(declare-fun A15 () Bool)
(declare-fun A16 () Bool)
(declare-fun A17 () Bool)
(declare-fun A18 () Bool)
(declare-fun A19 () Bool)
(declare-fun A20 () Bool)
(declare-fun A21 () Bool)
(declare-fun A22 () Bool)
(declare-fun A23 () Bool)
(declare-fun A24 () Bool)
(assert (let ((.def_0 (not A12))) (let ((.def_1 (not A11))) (let ((.def_2 (and .def_1 .def_0))) (let ((.def_3 (not .def_2))) (let ((.def_4 (not A15))) (let ((.def_5 (not A4))) (let ((.def_6 (or .def_5 .def_4))) (let ((.def_7 (= .def_6 .def_3))) (let ((.def_8 (not A19))) (let ((.def_9 (or .def_8 .def_5))) (let ((.def_10 (not .def_9))) (let ((.def_11 (not A16))) (let ((.def_12 (or A1 .def_11))) (let ((.def_13 (not .def_12))) (let ((.def_14 (= .def_13 .def_10))) (let ((.def_15 (and .def_14 .def_7))) (let ((.def_16 (and A12 A3))) (let ((.def_17 (not .def_16))) (let ((.def_18 (or A1 A16))) (let ((.def_19 (not .def_18))) (let ((.def_20 (and .def_19 .def_17))) (let ((.def_21 (not .def_20))) (let ((.def_22 (not A24))) (let ((.def_23 (= .def_22 A15))) (let ((.def_24 (not .def_23))) (let ((.def_25 (not A7))) (let ((.def_26 (and A22 .def_25))) (let ((.def_27 (not .def_26))) (let ((.def_28 (and .def_27 .def_24))) (let ((.def_29 (or .def_28 .def_21))) (let ((.def_30 (not .def_29))) (let ((.def_31 (and .def_30 .def_15))) (let ((.def_32 (not A10))) (let ((.def_33 (or A6 .def_32))) (let ((.def_34 (or A8 .def_22))) (let ((.def_35 (or .def_34 .def_33))) (let ((.def_36 (not A14))) (let ((.def_37 (or A20 .def_36))) (let ((.def_38 (not .def_37))) (let ((.def_39 (or A23 A24))) (let ((.def_40 (or .def_39 .def_38))) (let ((.def_41 (not .def_40))) (let ((.def_42 (= .def_41 .def_35))) (let ((.def_43 (not .def_42))) (let ((.def_44 (and A18 A15))) (let ((.def_45 (not A21))) (let ((.def_46 (not A23))) (let ((.def_47 (or .def_46 .def_45))) (let ((.def_48 (= .def_47 .def_44))) (let ((.def_49 (not .def_48))) (let ((.def_50 (or A21 .def_11))) (let ((.def_51 (not .def_50))) (let ((.def_52 (and A8 A4))) (let ((.def_53 (not .def_52))) (let ((.def_54 (= .def_53 .def_51))) (let ((.def_55 (not .def_54))) (let ((.def_56 (and .def_55 .def_49))) (let ((.def_57 (not .def_56))) (let ((.def_58 (or .def_57 .def_43))) (let ((.def_59 (not .def_58))) (let ((.def_60 (and .def_59 .def_31))) (let ((.def_61 (not .def_60))) (let ((.def_62 (or A17 .def_0))) (let ((.def_63 (not A9))) (let ((.def_64 (and A8 .def_63))) (let ((.def_65 (not .def_64))) (let ((.def_66 (or .def_65 .def_62))) (let ((.def_67 (and .def_46 A13))) (let ((.def_68 (not A2))) (let ((.def_69 (or .def_68 A21))) (let ((.def_70 (and .def_69 .def_67))) (let ((.def_71 (and .def_70 .def_66))) (let ((.def_72 (not A17))) (let ((.def_73 (and .def_72 .def_45))) (let ((.def_74 (and A7 .def_68))) (let ((.def_75 (not .def_74))) (let ((.def_76 (or .def_75 .def_73))) (let ((.def_77 (not .def_76))) (let ((.def_78 (or A4 .def_5))) (let ((.def_79 (or .def_8 .def_72))) (let ((.def_80 (not .def_79))) (let ((.def_81 (and .def_80 .def_78))) (let ((.def_82 (not .def_81))) (let ((.def_83 (or .def_82 .def_77))) (let ((.def_84 (not .def_83))) (let ((.def_85 (and .def_84 .def_71))) (let ((.def_86 (or A0 A1))) (let ((.def_87 (or .def_63 A13))) (let ((.def_88 (= .def_87 .def_86))) (let ((.def_89 (not .def_88))) (let ((.def_90 (and .def_4 A1))) (let ((.def_91 (= A1 A15))) (let ((.def_92 (or .def_91 .def_90))) (let ((.def_93 (not .def_92))) (let ((.def_94 (or .def_93 .def_89))) (let ((.def_95 (or A15 .def_0))) (let ((.def_96 (and A16 A19))) (let ((.def_97 (not .def_96))) (let ((.def_98 (or .def_97 .def_95))) (let ((.def_99 (not A20))) (let ((.def_100 (= .def_5 .def_99))) (let ((.def_101 (and A9 A5))) (let ((.def_102 (not .def_101))) (let ((.def_103 (or .def_102 .def_100))) (let ((.def_104 (or .def_103 .def_98))) (let ((.def_105 (not .def_104))) (let ((.def_106 (and .def_105 .def_94))) (let ((.def_107 (and .def_106 .def_85))) (let ((.def_108 (= .def_107 .def_61))) (let ((.def_109 (not .def_108))) (let ((.def_110 (= A13 .def_8))) (let ((.def_111 (not .def_110))) (let ((.def_112 (not A6))) (let ((.def_113 (and .def_112 .def_1))) (let ((.def_114 (not .def_113))) (let ((.def_115 (and .def_114 .def_111))) (let ((.def_116 (not .def_115))) (let ((.def_117 (not A3))) (let ((.def_118 (or A11 .def_117))) (let ((.def_119 (= .def_11 A21))) (let ((.def_120 (not .def_119))) (let ((.def_121 (= .def_120 .def_118))) (let ((.def_122 (and .def_121 .def_116))) (let ((.def_123 (and .def_46 A1))) (let ((.def_124 (not A18))) (let ((.def_125 (and A10 .def_124))) (let ((.def_126 (not .def_125))) (let ((.def_127 (or .def_126 .def_123))) (let ((.def_128 (and .def_0 A1))) (let ((.def_129 (not .def_128))) (let ((.def_130 (or A13 A23))) (let ((.def_131 (not .def_130))) (let ((.def_132 (or .def_131 .def_129))) (let ((.def_133 (or .def_132 .def_127))) (let ((.def_134 (not .def_133))) (let ((.def_135 (or .def_134 .def_122))) (let ((.def_136 (and A17 A7))) (let ((.def_137 (not .def_136))) (let ((.def_138 (or .def_5 A3))) (let ((.def_139 (or .def_138 .def_137))) (let ((.def_140 (not .def_139))) (let ((.def_141 (= A15 .def_117))) (let ((.def_142 (not .def_141))) (let ((.def_143 (or .def_32 A13))) (let ((.def_144 (not .def_143))) (let ((.def_145 (and .def_144 .def_142))) (let ((.def_146 (not .def_145))) (let ((.def_147 (or .def_146 .def_140))) (let ((.def_148 (not .def_147))) (let ((.def_149 (not A22))) (let ((.def_150 (and .def_149 .def_0))) (let ((.def_151 (or .def_32 .def_25))) (let ((.def_152 (not .def_151))) (let ((.def_153 (or .def_152 .def_150))) (let ((.def_154 (not .def_153))) (let ((.def_155 (not A0))) (let ((.def_156 (or .def_155 A1))) (let ((.def_157 (and .def_45 A22))) (let ((.def_158 (and .def_157 .def_156))) (let ((.def_159 (and .def_158 .def_154))) (let ((.def_160 (not .def_159))) (let ((.def_161 (or .def_160 .def_148))) (let ((.def_162 (not .def_161))) (let ((.def_163 (= .def_162 .def_135))) (let ((.def_164 (and A10 A14))) (let ((.def_165 (= .def_63 .def_45))) (let ((.def_166 (and .def_165 .def_164))) (let ((.def_167 (not .def_166))) (let ((.def_168 (or .def_5 .def_124))) (let ((.def_169 (not .def_168))) (let ((.def_170 (and A18 .def_68))) (let ((.def_171 (not .def_170))) (let ((.def_172 (and .def_171 .def_169))) (let ((.def_173 (and .def_172 .def_167))) (let ((.def_174 (not .def_173))) (let ((.def_175 (or .def_5 .def_25))) (let ((.def_176 (not .def_175))) (let ((.def_177 (and .def_1 .def_149))) (let ((.def_178 (= .def_177 .def_176))) (let ((.def_179 (not .def_178))) (let ((.def_180 (and .def_5 A8))) (let ((.def_181 (not .def_180))) (let ((.def_182 (or A0 .def_149))) (let ((.def_183 (not .def_182))) (let ((.def_184 (or .def_183 .def_181))) (let ((.def_185 (not .def_184))) (let ((.def_186 (and .def_185 .def_179))) (let ((.def_187 (not .def_186))) (let ((.def_188 (and .def_187 .def_174))) (let ((.def_189 (not .def_188))) (let ((.def_190 (and A14 .def_32))) (let ((.def_191 (or .def_124 A12))) (let ((.def_192 (or .def_191 .def_190))) (let ((.def_193 (or A20 A21))) (let ((.def_194 (and .def_25 .def_155))) (let ((.def_195 (not .def_194))) (let ((.def_196 (or .def_195 .def_193))) (let ((.def_197 (not .def_196))) (let ((.def_198 (and .def_197 .def_192))) (let ((.def_199 (not .def_198))) (let ((.def_200 (= .def_124 A15))) (let ((.def_201 (not .def_200))) (let ((.def_202 (and A24 .def_46))) (let ((.def_203 (or .def_202 .def_201))) (let ((.def_204 (or A8 A19))) (let ((.def_205 (not .def_204))) (let ((.def_206 (or A3 .def_46))) (let ((.def_207 (and .def_206 .def_205))) (let ((.def_208 (not .def_207))) (let ((.def_209 (and .def_208 .def_203))) (let ((.def_210 (and .def_209 .def_199))) (let ((.def_211 (not .def_210))) (let ((.def_212 (or .def_211 .def_189))) (let ((.def_213 (and .def_212 .def_163))) (let ((.def_214 (not .def_213))) (let ((.def_215 (= .def_214 .def_109))) .def_215)))))))))))))))))))))))))))))))))))))))))))))))))))))))))))))))))))))))))))))))))))))))))))))))))))))))))))))))))))))))))))))))))))))))))))))))))))))))))))))))))))))))))))))))))))))))))))))))))))))))))))))))))))))))))
(check-sat)
